CapLotSizing_PM/src/Instancias/TCLSLT/12i12p2m/NBB02.OUT
 CG ITER, OVMR, OVMRUB =           1   30367.9082031   30367.9062500
 CG ITER, OVMR, OVMRUB =           2   29925.2988281   29925.3007812
 CG ITER, OVMR, OVMRUB =           3   29925.2968750   29925.3007812
 CG ITER, OVMR, OVMRUB =           4   28695.4492188   29925.3007812
 CG ITER, OVMR, OVMRUB =           5   26559.4433594   29925.3007812
 CG ITER, OVMR, OVMRUB =           6   26788.2011719   29925.3007812
 CG ITER, OVMR, OVMRUB =           7   26866.9882812   29925.3007812
 CG ITER, OVMR, OVMRUB =           8   26889.1992188   29925.3007812
 CG ITER, OVMR, OVMRUB =           9   26980.4570312   29925.3007812
 CG ITER, OVMR, OVMRUB =          10   27036.3281250   29925.3007812
 CG ITER, OVMR, OVMRUB =          11   27127.0546875   29925.3007812
 CG ITER, OVMR, OVMRUB =          12   27258.0957031   29925.3007812
 CG ITER, OVMR, OVMRUB =          13   27279.4902344   29925.3007812
 CG ITER, OVMR, OVMRUB =          14   27212.6835938   29682.0292969
 CG ITER, OVMR, OVMRUB =          15   27171.5292969   29682.0292969
 CG ITER, OVMR, OVMRUB =          16   27128.3769531   29682.0292969
 CG ITER, OVMR, OVMRUB =          17   27088.5683594   29682.0292969
 CG ITER, OVMR, OVMRUB =          18   27059.4707031   29682.0292969
 CG ITER, OVMR, OVMRUB =          19   27039.6718750   29682.0292969
 CG ITER, OVMR, OVMRUB =          20   27027.9902344   29682.0292969
 CG ITER, OVMR, OVMRUB =          21   27011.9628906   29682.0292969
 CG ITER, OVMR, OVMRUB =          22   26994.9179688   29682.0292969
 CG ITER, OVMR, OVMRUB =          23   26974.1699219   29682.0292969
 CG ITER, OVMR, OVMRUB =          24   26964.8632812   29682.0292969
 CG ITER, OVMR, OVMRUB =          25   26957.5371094   29496.4296875
 CG ITER, OVMR, OVMRUB =          26   26954.7480469   29496.4296875
 CG ITER, OVMR, OVMRUB =          27   26953.7207031   29496.4296875
 CG ITER, OVMR, OVMRUB =          28   26946.7851562   29496.4296875
 CG ITER, OVMR, OVMRUB =          29   26945.1816406   29496.4296875
 CG ITER, OVMR, OVMRUB =          30   26942.5820312   29496.4296875
 CG ITER, OVMR, OVMRUB =          31   26942.4218750   28676.6445312
 CG ITER, OVMR, OVMRUB =          32   26941.6367188   28676.6445312
 CG ITER, OVMR, OVMRUB =          33   26942.9082031   28676.6445312
 CG ITER, OVMR, OVMRUB =          34   26941.9277344   28676.6445312
 CG ITER, OVMR, OVMRUB =          35   26941.9746094   28676.6445312
 CG ITER, OVMR, OVMRUB =          36   26942.4042969   28676.6445312
 CG ITER, OVMR, OVMRUB =          37   26942.3730469   28676.6445312
 CG ITER, OVMR, OVMRUB =          38   26942.6542969   28676.6445312
 CG ITER, OVMR, OVMRUB =          39   26941.7148438   28433.3554688
 CG ITER, OVMR, OVMRUB =          40   26942.6328125   28433.3554688
 CG ITER, OVMR, OVMRUB =          41   26942.8496094   28433.3554688
 CG ITER, OVMR, OVMRUB =          42   26942.2070312   28433.3554688
 CG ITER, OVMR, OVMRUB =          43   26941.7167969   28433.3554688
 CG ITER, OVMR, OVMRUB =          44   26941.5976562   28290.1308594
 CG ITER, OVMR, OVMRUB =          45   26942.0468750   28290.1308594
 CG ITER, OVMR, OVMRUB =          46   26942.1621094   28290.1308594
 CG ITER, OVMR, OVMRUB =          47   26942.6503906   28290.1308594
 CG ITER, OVMR, OVMRUB =          48   26941.7597656   28290.1308594
 CG ITER, OVMR, OVMRUB =          49   26942.2109375   28290.1308594
 CG ITER, OVMR, OVMRUB =          50   26942.1699219   28290.1308594
 CG ITER, OVMR, OVMRUB =          51   26942.1699219   28290.1308594
OVLB =   26942.1699219 OVLUB =   28290.1308594 TIME =      22.6200008
